CMD:
./solvers/bin/cadical --plain --no-reduce -t 1600 ./data/cnfs//pdtswvtms12x8p1/pdtswvtms12x8p1.89.cnf

c --- [ banner ] -------------------------------------------------------------
c 
c CaDiCaL SAT Solver
c Copyright (c) 2016-2024
c A. Biere, M. Fleury, N. Froleyks, K. Fazekas, F. Pollitt, T. Faller
c JKU Linz, University of Freiburg, TU Wien
c 
c Version 2.1.3 5296d3d2a9bf48c154ab2acb5e44625776d821bf
c g++ (Gentoo 12.3.1_p20230526 p2) 12.3.1 20230526 -Wall -Wextra -O3 -DNDEBUG
c Sat Aug 9 07:26:21 PDT 2025 Linux cedar2.int.cedar.computecanada.ca 5.14.0-362.24.2.el9_3.x86_64 x86_64
c 
c --- [ limit ] --------------------------------------------------------------
c 
c setting time limit to 1600 seconds real time (due to '-t 1600')
c 
c --- [ parsing input ] ------------------------------------------------------
c 
c reading DIMACS file from './data/cnfs//pdtswvtms12x8p1/pdtswvtms12x8p1.89.cnf'
c opening file to read './data/cnfs//pdtswvtms12x8p1/pdtswvtms12x8p1.89.cnf'
c found 'p cnf 216685 644005' header
c parsed 644005 clauses in 0.11 seconds process time
c 
c --- [ options ] ------------------------------------------------------------
c 
c   --compact=false                (different from default 'true')
c   --decompose=false              (different from default 'true')
c   --deduplicate=false            (different from default 'true')
c   --elim=false                   (different from default 'true')
c   --probe=false                  (different from default 'true')
c   --reduce=false                 (different from default 'true')
c   --subsume=false                (different from default 'true')
c   --ternary=false                (different from default 'true')
c   --transred=false               (different from default 'true')
c   --vivify=false                 (different from default 'true')
c 
c --- [ solving ] ------------------------------------------------------------
c 
c time measured in process time since initialization
c 
c  seconds   reductions  redundant  irredundant
c          MB    restarts       trail       variables
c           level   conflicts       glue          remaining
c 
c *  0.11 101  0 0   0    0    0  0% 0 630838 202966 94%
c {  0.18 104  0 0   0    0    0  0% 0 630838 202966 94%
c i  0.19 104 70 0   0    7    5  8% 5 630838 202910 94%
c i  0.21 104 63 0  14  426  371 10% 5 630838 202858 94%
c i  0.21 104 63 0  14  427  371 10% 5 630838 201910 93%
c i  0.22 107 56 0  16  494  423 10% 4 630838 201909 93%
c i  0.22 107 55 0  16  496  424 10% 4 630838 201899 93%
c i  0.22 107 66 0  20  552  460 10% 5 630838 201889 93%
c i  0.23 107 59 0  41  640  532 10% 5 630838 201871 93%
c i  0.23 107 59 0  41  641  532 10% 5 630838 201867 93%
c i  0.23 107 59 0  41  644  534 10% 5 630838 201824 93%
c }  0.26 107 116 0  46 1005  809 14% 4 630838 201824 93%
c [  0.26 107  0 0  46 1005  809  0% 0 630838 201824 93%
c O  0.28 107 41 0  46 1006  810 91% 1 630838 201824 93%
c i  0.34 107 246 0  46 1076  868 89% 5 630838 201808 93%
c i  0.40 107 159 0  46 1418 1151 84% 5 630838 201732 93%
c i  0.41 107 160 0  46 1435 1157 84% 6 630838 201720 93%
c i  0.49 107 170 0  47 2159 1770 73% 6 630838 201688 93%
c i  0.51 107 165 0  47 2242 1845 69% 6 630838 201658 93%
c i  0.51 107 163 0  47 2271 1871 68% 6 630838 201499 93%
c 
c  seconds    reductions  redundant  irredundant
c          MB     restarts       trail       variables
c            level   conflicts       glue          remaining
c 
c i  0.51 107 163 0  47 2272 1871 68% 6 630838 201466 93%
c i  0.52 107 163 0  47 2274 1872 68% 6 630838 201448 93%
c ]  0.59 107 126 0  47 3006 2487 49% 6 630838 201426 93%
c {  0.59 107 116 0  47 3006 2487 14% 4 630838 201426 93%
c F  0.59 107 116 0  47 3007 2488 14% 4 630838 201363 93%
c i  0.60 107 107 0  52 3097 2561 14% 4 630838 201331 93%
c i  0.63 108 94 0  61 3318 2751 14% 4 630838 201051 93%
c i  0.63 108 92 0  61 3358 2776 14% 4 630838 200999 93%
c i  0.64 108 90 0  68 3399 2809 14% 4 630838 200977 93%
c i  0.78 108 432 0  74 4975 3846 38% 4 630838 199843 92%
c i  0.96 108 348 0 128 5609 4406 37% 4 630838 199833 92%
c i  1.03 108 341 0 143 5678 4463 37% 4 630838 199820 92%
c i  1.03 108 340 0 143 5693 4473 37% 4 630838 199808 92%
c i  1.06 109 315 0 154 5970 4703 36% 4 630838 199783 92%
c i  1.06 109 315 0 155 5971 4703 36% 4 630838 199744 92%
c #  1.08 109 312 0 156 6009 4738 36% 4 630838 199744 92%
c i  1.21 109 300 0 173 6168 4853 35% 4 630838 199720 92%
c i  1.21 109 300 0 173 6169 4853 35% 4 630838 199696 92%
c i  1.21 109 298 0 173 6196 4878 35% 4 630838 199685 92%
c i  1.22 109 296 0 173 6231 4908 35% 4 630838 199684 92%
c 
c  seconds    reductions  redundant  irredundant
c          MB     restarts       trail       variables
c            level   conflicts       glue          remaining
c 
c i  1.25 109 274 0 187 6564 5205 34% 4 630838 199671 92%
c i  1.30 109 250 0 201 6977 5556 33% 4 630838 199670 92%
c }  1.30 109 249 0 202 7007 5580 33% 4 630838 199670 92%
c [  1.30 109 126 0 202 7007 5580 49% 6 630838 199670 92%
... skipped 86 lines ...
c i  8.34 113 106 0 904 22981 13702 37% 4 470471 162017 75%
c i  8.35 113 105 0 906 23009 13725 37% 4 470471 161965 75%
c i  8.35 113 105 0 906 23010 13725 37% 4 470471 161962 75%
c i  8.36 113 105 0 906 23025 13738 37% 4 470471 161942 75%
c i  8.38 113 105 0 910 23051 13762 37% 4 470471 161940 75%
c 
c  seconds    reductions    redundant  irredundant
c          MB     restarts         trail       variables
c            level    conflicts        glue          remaining
c 
c i  8.40 113 105 0 914 23075 13784 37% 4 470471 161896 75%
c i  8.40 113 105 0 914 23078 13786 37% 4 470471 161869 75%
c i  8.44 113 104 0 921 23136 13835 37% 4 470471 161547 75%
c i  8.44 113 104 0 921 23139 13836 37% 4 470471 161484 75%
c i  8.51 113 104 0 921 23255 13929 38% 4 470471 161110 74%
c i  8.55 113 103 0 925 23297 13966 38% 4 470471 161071 74%
c i  8.67 113 103 0 950 23401 14053 38% 4 470471 161060 74%
c i  8.81 113 102 0 976 23556 14164 38% 4 470471 161051 74%
c i  8.81 113 101 0 976 23557 14164 38% 4 470471 161028 74%
c i  8.81 113 101 0 976 23562 14168 38% 4 470471 161027 74%
c i  8.83 113 101 0 976 23601 14196 38% 4 470471 161015 74%
c i  8.98 113 100 0 993 23740 14323 38% 4 470471 160106 74%
c i  8.98 113 100 0 994 23746 14325 38% 4 470471 159483 74%
c i  9.20 113 99 0 1028 23953 14497 38% 4 470471 158643 73%
c i  9.21 113 99 0 1032 23968 14509 38% 4 470471 150454 69%
c i  9.21 113 99 0 1032 23970 14509 38% 4 470471 149799 69%
c i  9.26 113 99 0 1040 24010 14541 38% 4 470471 148869 69%
c i  9.37 113 98 0 1064 24112 14636 38% 4 470471 148611 69%
c i  9.52 113 96 0 1068 24436 14919 39% 4 470471 148337 68%
c i  9.59 113 96 0 1074 24517 14976 39% 4 470471 144467 67%
c 
c  seconds   reductions     redundant  irredundant
c          MB    restarts          trail       variables
c           level     conflicts        glue          remaining
c 
c i  9.61 113 96 0 1074 24570 15015 39% 4 470471 143845 66%
c i  9.72 113 94 0 1074 24778 15197 39% 4 470471 143836 66%
c i  9.73 113 94 0 1074 24782 15199 39% 4 470471 143827 66%
c i  9.82 113 94 0 1082 24833 15242 40% 4 470471 143481 66%
c i  9.82 113 94 0 1085 24842 15246 40% 4 470471 143024 66%
c i  9.83 113 94 0 1090 24862 15263 40% 4 470471 142320 66%
c i  9.98 113 93 0 1100 24962 15339 40% 4 470471 141960 66%
c i  9.99 113 93 0 1100 24972 15345 40% 4 470471 140487 65%
c i  9.99 113 93 0 1100 24973 15345 40% 4 470471 139706 64%
c } 10.04 113 93 0 1100 25025 15383 40% 4 470471 136975 63%
c 0 10.04 113 93 0 1100 25025 15383 40% 4 470471 136975 63%
c 
c --- [ result ] -------------------------------------------------------------
c 
s UNSATISFIABLE
c 
c --- [ run-time profiling ] -------------------------------------------------
c 
c process time taken by individual solving procedures
c (percentage relative to process time for solving)
c 
c         9.93  100.00% search
c         6.56   66.10% unstable
c         3.02   30.38% stable
c         0.28    2.79% walk
c         0.11    1.13% parse
c         0.07    0.72% lucky
c         0.00    0.00% simplify
c   =================================
c         9.93   98.88% solve
c 
c last line shows process time for solving
c (percentage relative to total process time)
c 
c --- [ statistics ] ---------------------------------------------------------
c 
c chronological:              8962        35.81 %  of conflicts
c conflicts:                 25025      2521.37    per second
c decisions:                 68778      6929.66    per second
c fixed:                     79710        36.79 %  of all variables
c learned:                   23373        93.40 %  per conflict
c learned_lits:             803764       100.00 %  learned literals
c minimized:                     0         0.00 %  learned literals
c shrunken:                 155312        19.32 %  learned literals
c minishrunken:             182141        22.66 %  learned literals
c otfs:                        300         1.20 %  of conflict
c propagations:          117628561        11.85 M  per second
c rephased:                      6      4170.83    interval
c restarts:                   1100        22.75    interval
c stabilizing:                   2        39.93 %  of conflicts
c subsumed:                   2145         0.33 %  of all clauses
c strengthened:                286         0.04 %  of all clauses
c walked:                        1     25025.00    interval
c 
c seconds are measured in process time for solving
c 
c --- [ resources ] ----------------------------------------------------------
c 
c total process time since initialization:        10.04    seconds
c total real time since initialization:           10.09    seconds
c maximum resident set size of process:          115.15    MB
c 
c --- [ shutting down ] ------------------------------------------------------
c 
c exit 20
